/*********************************************
 * OPL 12.6.0.0 Data
 * Author: Adrian Rodriguez Bazaga, Pau Rodriguez Esmerats
 * Creation Date: 06/12/2017 at 23:04:59
 *********************************************/

nNurses=243;
maxConsec=2;
maxPresence=7;
maxHours=5;
minHours=1;
hours=24;
demand= [37 44 56 56 44 56 56 47 45 23 5 7 7 10 11 7 7 6 6 3 40 71 35 51  ];
